Version identifier: 22.1.1.0 | 2022-11-28 | 9160aff4d
CPXPARAM_ClockType                               1
CPXPARAM_Read_DataCheck                          1
CPXPARAM_Threads                                 1
CPXPARAM_Simplex_Tolerances_Optimality           1.0000000000000001e-09
CPXPARAM_TimeLimit                               7200
CPXPARAM_MIP_Tolerances_AbsMIPGap                0
CPXPARAM_MIP_Tolerances_MIPGap                   0
CPXPARAM_MIP_Tolerances_Integrality              0
Tried aggregator 5 times.
MIQP Presolve eliminated 4812 rows and 994 columns.
MIQP Presolve modified 2 coefficients.
Aggregator did 303 substitutions.
Reduced MIQP has 1626 rows, 751 columns, and 4372 nonzeros.
Reduced MIQP has 563 binaries, 188 generals, 0 SOSs, and 0 indicators.
Reduced MIQP objective Q matrix has 188 nonzeros.
Presolve time = 0.01 sec. (10.47 ticks)
Probing time = 0.00 sec. (2.02 ticks)
Tried aggregator 1 time.
Reduced MIQP has 1626 rows, 751 columns, and 4372 nonzeros.
Reduced MIQP has 563 binaries, 188 generals, 0 SOSs, and 0 indicators.
Reduced MIQP objective Q matrix has 188 nonzeros.
Presolve time = 0.00 sec. (2.57 ticks)
Classifier predicts products in MIQP should be linearized.
Probing time = 0.01 sec. (2.01 ticks)
Clique table members: 1405.
MIP emphasis: balance optimality and feasibility.
MIP search method: dynamic search.
Parallel mode: none, using 1 thread.
Root relaxation solution time = 0.13 sec. (126.57 ticks)

        Nodes                                         Cuts/
   Node  Left     Objective  IInf  Best Integer    Best Bound    ItCnt     Gap

*     0     0      integral     0      188.0000      188.0000       13    0.00%
Elapsed time = 0.16 sec. (146.62 ticks, tree = 0.00 MB, solutions = 1)

Root node processing (before b&c):
  Real time             =    0.16 sec. (146.67 ticks)
Sequential b&c:
  Real time             =    0.00 sec. (0.00 ticks)
                          ------------
Total (root+branch&cut) =    0.16 sec. (146.67 ticks)
Solution is feasible.

---------------------
@@@ MIP_optimal
>>> Benchmark mc2024_track1_184.cnf k 2 OPT 188 TimeCost 0.5336503982543945 TimeSolve 0.16765809059143066 TimeRead 0.0055925846099853516 TimeTrans 0.3603997230529785
